# Solution for model GasLib-40
# Objective value = 1.0583044377653211e+01
loadshed[innode_1] 0
loadshed[innode_2] 0
loadshed[innode_3] 0
loadshed[innode_4] 0
loadshed[innode_5] 0
loadshed[innode_6] 0
loadshed[innode_7] 0
loadshed[innode_8] 0
loadshed[source_1] -3.2667384035482705e-01
loadshed[source_2] 0.0713566562566218
loadshed[source_3] 3.2226022782232677e-01
loadshed[sink_1] 0
loadshed[sink_2] 0
loadshed[sink_3] 0
loadshed[sink_4] 0
loadshed[sink_5] 0
loadshed[sink_6] 0
loadshed[sink_7] 0
loadshed[sink_8] 0
loadshed[sink_9] 0
loadshed[sink_10] 0
loadshed[sink_11] 0
loadshed[sink_12] 0.647116089334209
loadshed[sink_13] 0
loadshed[sink_14] 0
loadshed[sink_15] 0
loadshed[sink_16] 0
loadshed[sink_17] 0
loadshed[sink_18] 0
loadshed[sink_19] 0
loadshed[sink_20] 0
loadshed[sink_21] 0
loadshed[sink_22] 0
loadshed[sink_23] 0
loadshed[sink_24] 0
loadshed[sink_25] 0
loadshed[sink_26] 0
loadshed[sink_27] 0
loadshed[sink_28] 0
loadshed[sink_29] 0
flow[source_1,sink_3] 2.0973423594220583e+02
flow[innode_1,sink_16] 1.6354166666666970e+01
flow[innode_6,sink_13] 7.3350978220640854e+00
flow[sink_13,sink_14] -9.0190688446025824e+00
flow[sink_14,sink_10] -2.5373235511269286e+01
flow[sink_25,sink_26] 1.7153551375523330e+02
flow[sink_26,sink_9] 1.2179482474754744e+02
flow[sink_9,sink_18] 1.0544065808088077e+02
flow[sink_26,sink_4] 33.3865223410192
flow[sink_4,sink_20] -1.7184731921873379e+01
flow[sink_18,sink_6] 89.0864914142141
flow[sink_25,innode_8] -1.7702590260886944e+02
flow[sink_6,sink_7] 4.0023991414213469e+01
flow[sink_6,sink_22] 3.2708333333333641e+01
flow[sink_7,sink_24] 3.8479455622346791e+01
flow[sink_22,sink_1] 1.6354166666666970e+01
flow[sink_24,sink_21] 2.2125288955680126e+01
flow[sink_21,sink_12] 5.7711222890134568e+00
flow[sink_7,sink_5] -1.4809630874799410e+01
flow[sink_5,sink_17] -3.1163797541466124e+01
flow[sink_17,sink_4] -3.4217087596225895e+01
flow[sink_17,sink_8] -1.3300876611906745e+01
flow[sink_3,sink_23] 16.3541666666697
flow[sink_8,sink_20] -2.9655043278573373e+01
flow[sink_25,sink_20] 6.3193941867113324e+01
flow[sink_25,sink_15] -8.1392817502207166e+01
flow[sink_15,sink_29] 0
flow[sink_29,sink_28] 1.6354166666667879e+01
flow[sink_29,sink_2] 1.1410115083554051e+02
flow[sink_2,sink_15] 9.7746984168873837e+01
flow[sink_29,innode_7] -1.4680948416887503e+02
flow[innode_4,sink_19] 1.0714406884461619e+02
flow[sink_19,innode_3] 3.6324324736430896e+01
flow[innode_4,innode_5] 0
flow[sink_27,innode_5] 0
flow[sink_27,sink_19] -1.6354166666679703e+01
flow[sink_10,sink_11] 3.2708333333333641e+01
flow[sink_10,innode_2] -3.8111410774838930e+01
flow[sink_10,innode_3] -3.6324324736430896e+01
flow[innode_6,sink_25] -7.3350978220640854e+00
flow[sink_11,innode_1] 1.6354166666666970e+01
flow[sink_19,innode_2] 3.8111410774838930e+01
flow[source_3,innode_4] 1.0714406884461619e+02
flow[source_2,innode_7] 1.4680948416887503e+02
flow[sink_3,innode_8] 1.7702590260886944e+02
pressure[innode_1] 74.5065239941257
pressure[innode_2] 7.6672570766461192e+01
pressure[innode_3] 7.6592134662615933e+01
pressure[innode_4] 81.01325
pressure[innode_5] 81.01325
pressure[innode_6] 7.3482403666305459e+01
pressure[innode_7] 81.01325
pressure[innode_8] 8.0312188570627413e+01
pressure[source_1] 81.01325
pressure[source_2] 81.01325
pressure[source_3] 81.01325
pressure[sink_1] 4.5816414111750035e+01
pressure[sink_2] 7.4196360502352761e+01
pressure[sink_3] 8.0312188570627413e+01
pressure[sink_4] 5.7156409311130751e+01
pressure[sink_5] 5.3527267392121026e+01
pressure[sink_6] 4.7917491722137406e+01
pressure[sink_7] 4.7368057722776456e+01
pressure[sink_8] 5.6350621679956660e+01
pressure[sink_9] 5.4111523564814782e+01
pressure[sink_10] 7.4658225301729246e+01
pressure[sink_11] 74.5065239941257
pressure[sink_12] 1.0132499999999998e+00
pressure[sink_13] 7.3441966497821142e+01
pressure[sink_14] 7.3458106889773347e+01
pressure[sink_15] 7.3877238142129713e+01
pressure[sink_16] 7.3484874159308021e+01
pressure[sink_17] 5.5848745050561696e+01
pressure[sink_18] 5.0296366288239525e+01
pressure[sink_19] 7.6672570766461192e+01
pressure[sink_20] 5.8417161149561849e+01
pressure[sink_21] 3.0669311651841880e+00
pressure[sink_22] 4.6880183254105042e+01
pressure[sink_23] 8.0147470558967626e+01
pressure[sink_24] 3.3119481835232483e+00
pressure[sink_25] 7.3482403666305459e+01
pressure[sink_26] 6.1401258169745148e+01
pressure[sink_27] 7.6321440769317690e+01
pressure[sink_28] 7.6791389150358881e+01
pressure[sink_29] 7.7086671423976057e+01
interdiction[source_1,sink_3] 0
interdiction[innode_1,sink_16] 0
interdiction[innode_6,sink_13] 0
interdiction[sink_13,sink_14] 0
interdiction[sink_14,sink_10] 0
interdiction[sink_25,sink_26] 0
interdiction[sink_26,sink_9] 0
interdiction[sink_9,sink_18] 0
interdiction[sink_26,sink_4] 0
interdiction[sink_4,sink_20] 0
interdiction[sink_18,sink_6] 0
interdiction[sink_25,innode_8] 0
interdiction[sink_6,sink_7] 0
interdiction[sink_6,sink_22] 0
interdiction[sink_7,sink_24] 0
interdiction[sink_22,sink_1] 0
interdiction[sink_24,sink_21] 0
interdiction[sink_21,sink_12] 0
interdiction[sink_7,sink_5] 0
interdiction[sink_5,sink_17] 0
interdiction[sink_17,sink_4] 0
interdiction[sink_17,sink_8] 0
interdiction[sink_3,sink_23] 0
interdiction[sink_8,sink_20] 0
interdiction[sink_25,sink_20] 0
interdiction[sink_25,sink_15] 0
interdiction[sink_15,sink_29] 1
interdiction[sink_29,sink_28] 0
interdiction[sink_29,sink_2] 0
interdiction[sink_2,sink_15] 0
interdiction[sink_29,innode_7] 0
interdiction[innode_4,sink_19] 0
interdiction[sink_19,innode_3] 0
interdiction[innode_4,innode_5] 0
interdiction[sink_27,innode_5] 1
interdiction[sink_27,sink_19] 0
interdiction[sink_10,sink_11] 0
interdiction[sink_10,innode_2] 0
interdiction[sink_10,innode_3] 0
interdiction[innode_6,sink_25] 0
interdiction[sink_11,innode_1] 0
interdiction[sink_19,innode_2] 0
interdiction[source_3,innode_4] 0
interdiction[source_2,innode_7] 0
interdiction[sink_3,innode_8] 0
WCcheckFlow[source_1,sink_3] 39
WCcheckFlow[innode_1,sink_16] 1
WCcheckFlow[innode_6,sink_13] 13
WCcheckFlow[sink_13,sink_14] 12
WCcheckFlow[sink_14,sink_10] 11
WCcheckFlow[sink_25,sink_26] 15
WCcheckFlow[sink_26,sink_9] 12
WCcheckFlow[sink_9,sink_18] 11
WCcheckFlow[sink_26,sink_4] 2
WCcheckFlow[sink_4,sink_20] 1
WCcheckFlow[sink_18,sink_6] 10
WCcheckFlow[sink_25,innode_8] -36
WCcheckFlow[sink_6,sink_7] 7
WCcheckFlow[sink_6,sink_22] 2
WCcheckFlow[sink_7,sink_24] 3
WCcheckFlow[sink_22,sink_1] 1
WCcheckFlow[sink_24,sink_21] 2
WCcheckFlow[sink_21,sink_12] 1
WCcheckFlow[sink_7,sink_5] 3
WCcheckFlow[sink_5,sink_17] 2
WCcheckFlow[sink_17,sink_4] 0
WCcheckFlow[sink_17,sink_8] 1
WCcheckFlow[sink_3,sink_23] 1
WCcheckFlow[sink_8,sink_20] 0
WCcheckFlow[sink_25,sink_20] 0
WCcheckFlow[sink_25,sink_15] 6
WCcheckFlow[sink_15,sink_29] 0
WCcheckFlow[sink_29,sink_28] 1
WCcheckFlow[sink_29,sink_2] -4
WCcheckFlow[sink_2,sink_15] -5
WCcheckFlow[sink_29,innode_7] 2
WCcheckFlow[innode_4,sink_19] -3
WCcheckFlow[sink_19,innode_3] -5
WCcheckFlow[innode_4,innode_5] 1
WCcheckFlow[sink_27,innode_5] 0
WCcheckFlow[sink_27,sink_19] -1
WCcheckFlow[sink_10,sink_11] 3
WCcheckFlow[sink_10,innode_2] 1
WCcheckFlow[sink_10,innode_3] 6
WCcheckFlow[innode_6,sink_25] -14
WCcheckFlow[sink_11,innode_1] 2
WCcheckFlow[sink_19,innode_2] 0
WCcheckFlow[source_3,innode_4] -1
WCcheckFlow[source_2,innode_7] -1
WCcheckFlow[sink_3,innode_8] 37
